1 100 471
2 1 1 5 0 1 2 3 1 3
4
4 8 1 4
0 40.0 50.0 0.0 0.0 0 1236
2 45.0 68.0 90.0 10.0 912 967 60 0 0 1 0 0 0 0 0 1 0
3 45.0 70.0 90.0 30.0 825 870 48 0 0 0 0 0 1 0 0 0 0
4 42.0 66.0 90.0 10.0 65 146 29 0 0 0 0 0 1 0 0 0 0
5 42.0 68.0 90.0 10.0 727 782 47 0 0 0 0 0 1 0 0 0 0
6 42.0 65.0 90.0 10.0 15 67 15 1 1 0 1 0 1 0 0 0 0
7 40.0 69.0 90.0 20.0 621 702 53 0 0 0 0 0 0 0 0 0 1
8 40.0 66.0 90.0 20.0 170 225 91 0 0 1 0 0 0 0 0 0 0
9 38.0 68.0 90.0 20.0 255 324 61 0 0 0 0 0 0 1 0 0 0
10 38.0 70.0 90.0 10.0 534 605 19 0 1 0 0 0 0 1 1 1 0
11 35.0 66.0 90.0 10.0 357 410 54 0 1 0 0 0 0 0 0 0 0
12 35.0 69.0 90.0 10.0 448 505 77 0 0 0 0 0 1 0 0 0 0
13 25.0 85.0 90.0 20.0 652 721 77 1 0 0 1 0 0 0 0 0 1
14 22.0 75.0 90.0 30.0 30 92 73 1 0 0 0 0 1 0 0 1 0
15 22.0 85.0 90.0 10.0 567 620 62 0 1 0 1 0 0 0 1 0 0
16 20.0 80.0 90.0 40.0 384 429 95 0 0 0 0 0 1 0 0 1 0
17 20.0 85.0 90.0 40.0 475 528 44 0 0 0 0 0 1 0 0 0 0
18 18.0 75.0 90.0 20.0 99 148 84 0 0 0 0 0 1 0 0 0 0
19 15.0 75.0 90.0 20.0 179 254 75 0 0 1 0 0 0 0 0 1 1
20 15.0 80.0 90.0 10.0 278 345 41 0 0 1 0 0 0 0 1 0 1
21 30.0 50.0 90.0 10.0 10 73 20 0 0 1 0 0 0 0 0 0 1
22 30.0 52.0 90.0 20.0 914 965 43 0 1 0 1 0 0 0 0 0 1
23 28.0 52.0 90.0 20.0 812 883 88 0 0 0 0 0 0 0 0 1 0
24 28.0 55.0 90.0 10.0 732 777 24 0 0 1 0 0 0 1 0 1 0
25 25.0 50.0 90.0 10.0 65 144 47 0 0 0 0 0 1 1 0 0 1
26 25.0 52.0 90.0 40.0 169 224 52 0 0 0 0 0 1 0 0 0 0
27 25.0 55.0 90.0 10.0 622 701 60 0 0 0 1 0 0 0 1 0 0
28 23.0 52.0 90.0 10.0 261 316 3 0 0 0 0 0 1 0 0 0 0
29 23.0 55.0 90.0 20.0 546 593 82 0 0 0 0 0 0 1 1 1 0
30 20.0 50.0 90.0 10.0 358 405 92 0 0 1 0 1 1 0 0 0 0
31 20.0 55.0 90.0 10.0 449 504 23 1 0 0 0 0 0 0 1 0 0
32 10.0 35.0 90.0 20.0 200 237 45 0 1 0 0 1 1 0 0 1 0
33 10.0 40.0 90.0 30.0 31 100 45 0 1 0 0 0 0 1 0 1 0
34 8.0 40.0 90.0 40.0 87 158 37 0 0 0 0 0 0 0 0 1 1
35 8.0 45.0 90.0 20.0 751 816 87 0 0 0 0 0 0 1 1 0 0
36 5.0 35.0 90.0 10.0 283 344 2 0 0 1 1 1 0 0 0 0 1
37 5.0 45.0 90.0 10.0 665 716 62 0 0 0 0 0 0 0 0 1 0
38 2.0 40.0 90.0 20.0 383 434 25 0 1 0 0 1 0 0 0 0 0
39 0.0 40.0 90.0 30.0 479 522 53 1 1 0 0 0 0 0 0 0 0
40 0.0 45.0 90.0 20.0 567 624 38 1 0 0 0 0 0 0 0 0 0
41 35.0 30.0 90.0 10.0 264 321 35 0 0 0 0 0 0 0 1 0 1
42 35.0 32.0 90.0 10.0 166 235 60 0 1 0 0 1 0 0 0 0 0
43 33.0 32.0 90.0 20.0 68 149 75 0 0 1 0 0 1 0 0 0 0
44 33.0 35.0 90.0 10.0 16 80 55 0 0 0 1 0 0 1 0 1 0
45 32.0 30.0 90.0 10.0 359 412 30 1 0 0 1 0 0 1 0 0 0
46 30.0 30.0 90.0 10.0 541 600 98 1 1 0 0 0 0 1 0 0 0
47 30.0 32.0 90.0 30.0 448 509 91 0 0 1 0 0 0 1 0 1 0
48 30.0 35.0 90.0 10.0 1054 1127 74 0 1 0 0 0 0 0 0 0 0
49 28.0 30.0 90.0 10.0 632 693 36 0 0 1 1 0 0 0 0 0 0
50 28.0 35.0 90.0 10.0 1001 1066 12 0 0 0 1 0 0 0 0 1 0
51 26.0 32.0 90.0 10.0 815 880 62 0 0 0 0 0 0 0 1 0 0
52 25.0 30.0 90.0 10.0 725 786 19 0 0 0 0 0 0 1 0 0 0
53 25.0 35.0 90.0 10.0 912 969 77 0 0 0 1 1 0 0 1 1 0
54 44.0 5.0 90.0 20.0 286 347 16 0 0 0 0 0 1 0 1 1 0
55 42.0 10.0 90.0 40.0 186 257 46 0 0 0 0 0 0 0 0 1 0
56 42.0 15.0 90.0 10.0 95 158 7 1 0 0 1 0 0 0 1 0 0
57 40.0 5.0 90.0 30.0 385 436 16 0 1 1 0 0 0 0 0 0 0
58 40.0 15.0 90.0 40.0 35 87 8 1 0 1 0 0 0 0 1 0 0
59 38.0 5.0 90.0 30.0 471 534 37 0 0 0 0 1 0 1 1 0 0
60 38.0 15.0 90.0 10.0 651 740 43 0 1 1 0 0 0 1 0 1 0
61 35.0 5.0 90.0 20.0 562 629 47 1 0 0 0 0 0 0 0 0 0
62 50.0 30.0 90.0 10.0 531 610 87 1 0 0 0 1 0 1 0 1 0
63 50.0 35.0 90.0 20.0 262 317 88 0 0 0 1 0 0 1 0 0 0
64 50.0 40.0 90.0 50.0 171 218 5 0 0 0 0 0 0 0 1 0 1
65 48.0 30.0 90.0 10.0 632 693 58 1 0 0 0 0 0 0 1 0 0
66 48.0 40.0 90.0 10.0 76 129 8 0 0 0 0 0 0 0 0 1 0
67 47.0 35.0 90.0 10.0 826 875 17 1 0 0 1 0 0 0 0 0 0
68 47.0 40.0 90.0 10.0 12 77 51 1 1 0 0 0 0 1 0 0 0
69 45.0 30.0 90.0 10.0 734 777 18 0 1 1 0 1 0 1 1 0 0
70 45.0 35.0 90.0 10.0 916 969 58 0 0 0 0 0 0 0 1 0 0
71 95.0 30.0 90.0 30.0 387 456 18 0 0 0 0 0 1 0 0 0 0
72 95.0 35.0 90.0 20.0 293 360 38 0 0 0 0 1 0 0 1 0 0
73 53.0 30.0 90.0 10.0 450 505 72 0 0 0 0 0 1 0 0 0 0
74 92.0 30.0 90.0 10.0 478 551 57 0 0 0 0 0 0 0 1 1 0
75 53.0 35.0 90.0 50.0 353 412 51 0 0 0 0 0 1 0 0 0 0
76 45.0 65.0 90.0 20.0 997 1068 26 0 0 0 1 0 0 0 1 1 0
77 90.0 35.0 90.0 10.0 203 260 80 0 1 0 0 0 0 0 0 0 0
78 88.0 30.0 90.0 10.0 574 643 97 0 1 0 0 0 0 0 0 0 0
79 88.0 35.0 90.0 20.0 109 170 62 1 1 0 0 1 1 0 0 0 0
80 87.0 30.0 90.0 10.0 668 731 35 0 0 0 0 0 0 0 0 0 1
81 85.0 25.0 90.0 10.0 769 820 20 0 0 0 0 0 1 0 0 0 1
82 85.0 35.0 90.0 30.0 47 124 67 0 1 1 0 0 0 0 0 0 0
83 75.0 55.0 90.0 20.0 369 420 73 1 0 1 1 0 1 0 0 0 0
84 72.0 55.0 90.0 10.0 265 338 17 0 1 0 1 0 0 0 0 0 1
85 70.0 58.0 90.0 20.0 458 523 69 1 0 0 0 0 0 0 1 0 1
86 68.0 60.0 90.0 30.0 555 612 5 0 0 0 0 0 1 0 0 0 0
87 66.0 55.0 90.0 10.0 173 238 52 0 0 0 0 0 0 0 0 1 0
88 65.0 55.0 90.0 20.0 85 144 89 0 0 1 0 1 0 0 0 0 0
89 65.0 60.0 90.0 30.0 645 708 43 0 1 1 0 0 0 0 0 0 0
90 63.0 58.0 90.0 10.0 737 802 1 1 0 0 0 0 0 1 0 0 0
91 60.0 55.0 90.0 10.0 20 84 41 0 0 0 0 0 1 0 0 0 0
92 60.0 60.0 90.0 10.0 836 889 23 1 0 0 0 0 0 1 0 1 0
93 67.0 85.0 90.0 20.0 368 441 80 0 0 0 0 0 0 1 1 1 0
94 65.0 85.0 90.0 40.0 475 518 68 0 0 0 0 0 1 0 0 0 0
95 65.0 82.0 90.0 10.0 285 336 14 0 0 1 1 0 0 0 0 0 0
96 62.0 80.0 90.0 30.0 196 239 16 0 0 1 1 0 0 0 0 0 0
97 60.0 80.0 90.0 10.0 95 156 23 0 0 0 0 0 0 0 1 0 0
98 60.0 85.0 90.0 30.0 561 622 57 0 0 0 1 0 1 1 0 0 0
99 58.0 75.0 90.0 20.0 30 84 22 0 0 0 0 0 0 1 0 0 0
100 55.0 80.0 90.0 10.0 743 820 5 0 1 1 0 0 0 1 0 0 0
101 55.0 85.0 90.0 20.0 647 726 71 0 0 1 0 0 0 1 0 0 0